1405.41
0 72 9 22 20 35 67 4 26 0
0 59 11 55 18 16 56 1 5 34 0
0 28 21 29 13 14 10 12 24 75 0
0 37 36 6 33 43 42 64 41 23 49 44 3 51 58 0
0 39 32 48 47 15 57 54 19 53 46 8 27 0
0 38 66 65 31 25 40 63 62 68 0
0 70 60 71 69 61 73 50 7 52 45 30 74 2 17 0
